(set-info :smt-lib-version 2.6)
(set-logic QF_NIA)
(set-info :source |
Generated by: Cristina Borralleras, Daniel Larraz, Albert Oliveras, Enric Rodriguez-Carbonell, Albert Rubio
Generated on: 2017-04-27
Generator: VeryMax
Application: Termination proving
Target solver: barcelogic
|)
(set-info :license "https://creativecommons.org/licenses/by/4.0/")
(set-info :category "industrial")
(set-info :status unknown)
(declare-fun Nl3arg11 () Int)
(declare-fun Nl3arg21 () Int)
(declare-fun Nl3arg31 () Int)
(declare-fun Nl3arg12 () Int)
(declare-fun Nl3arg22 () Int)
(declare-fun Nl3arg32 () Int)
(declare-fun Nl3arg13 () Int)
(declare-fun Nl3arg23 () Int)
(declare-fun Nl3arg33 () Int)
(declare-fun lam0n0 () Int)
(declare-fun lam0n1 () Int)
(declare-fun lam0n2 () Int)
(declare-fun lam0n3 () Int)
(declare-fun lam0n4 () Int)
(declare-fun Nl3CT1 () Int)
(declare-fun Nl3CT2 () Int)
(declare-fun Nl3CT3 () Int)
(declare-fun lam1n0 () Int)
(declare-fun lam1n1 () Int)
(declare-fun lam1n2 () Int)
(declare-fun lam1n3 () Int)
(declare-fun lam1n4 () Int)
(declare-fun lam2n0 () Int)
(declare-fun lam2n1 () Int)
(declare-fun lam2n2 () Int)
(declare-fun lam2n3 () Int)
(declare-fun lam2n4 () Int)
(declare-fun lam3n0 () Int)
(declare-fun lam3n1 () Int)
(declare-fun lam3n2 () Int)
(declare-fun lam3n3 () Int)
(declare-fun lam3n4 () Int)
(declare-fun lam4n0 () Int)
(declare-fun lam4n1 () Int)
(declare-fun lam4n2 () Int)
(declare-fun lam5n0 () Int)
(declare-fun lam5n1 () Int)
(declare-fun lam5n2 () Int)
(declare-fun lam6n0 () Int)
(declare-fun lam6n1 () Int)
(declare-fun lam6n2 () Int)
(declare-fun lam7n0 () Int)
(declare-fun lam7n1 () Int)
(declare-fun lam7n2 () Int)
(declare-fun lam7n3 () Int)
(declare-fun lam8n0 () Int)
(declare-fun lam8n1 () Int)
(declare-fun lam8n2 () Int)
(declare-fun lam8n3 () Int)
(declare-fun lam9n0 () Int)
(declare-fun lam9n1 () Int)
(declare-fun lam9n2 () Int)
(declare-fun lam9n3 () Int)
(declare-fun arg2 () Int)
(declare-fun undef7 () Int)
(declare-fun arg3 () Int)
(declare-fun undef8 () Int)
(declare-fun undef9 () Int)
(declare-fun undef10 () Int)
(declare-fun undef11 () Int)
(declare-fun undef12 () Int)
(declare-fun lam13n0 () Int)
(declare-fun lam13n1 () Int)
(declare-fun lam13n2 () Int)
(declare-fun lam13n3 () Int)
(declare-fun lam13n4 () Int)
(declare-fun RFN1_CT () Int)
(declare-fun RFN1_arg1 () Int)
(declare-fun RFN1_arg2 () Int)
(declare-fun RFN1_arg3 () Int)
(declare-fun lam11n0 () Int)
(declare-fun lam11n1 () Int)
(declare-fun lam11n2 () Int)
(declare-fun lam11n3 () Int)
(declare-fun lam11n4 () Int)
(declare-fun lam12n0 () Int)
(declare-fun lam12n1 () Int)
(declare-fun lam12n2 () Int)
(declare-fun lam12n3 () Int)
(declare-fun lam12n4 () Int)
(declare-fun lam10n0 () Int)
(declare-fun lam10n1 () Int)
(declare-fun lam10n2 () Int)
(declare-fun lam10n3 () Int)
(declare-fun lam10n4 () Int)
(assert ( and ( <= ( - 1 ) Nl3arg11 ) ( <= Nl3arg11 1 ) ( <= ( - 1 ) Nl3arg21 ) ( <= Nl3arg21 1 ) ( <= ( - 1 ) Nl3arg31 ) ( <= Nl3arg31 1 ) ( <= ( - 1 ) Nl3arg12 ) ( <= Nl3arg12 1 ) ( <= ( - 1 ) Nl3arg22 ) ( <= Nl3arg22 1 ) ( <= ( - 1 ) Nl3arg32 ) ( <= Nl3arg32 1 ) ( <= ( - 1 ) Nl3arg13 ) ( <= Nl3arg13 1 ) ( <= ( - 1 ) Nl3arg23 ) ( <= Nl3arg23 1 ) ( <= ( - 1 ) Nl3arg33 ) ( <= Nl3arg33 1 ) ))
(assert ( or ( and ( >= lam0n0 0 ) ( >= lam0n1 0 ) ( >= lam0n2 0 ) ( >= lam0n3 0 ) ( >= lam0n4 0 ) ( > ( + ( * 1 lam0n0 ) ( * Nl3CT1 lam0n2 ) ( * Nl3CT2 lam0n3 ) ( * Nl3CT3 lam0n4 ) ( - 1 ) ) 0 ) ( = ( + ( * ( - 1 ) lam0n0 ) ( * Nl3arg11 lam0n2 ) ( * Nl3arg12 lam0n3 ) ( * Nl3arg13 lam0n4 ) ) 0 ) ( = ( + ( * Nl3arg21 lam0n2 ) ( * Nl3arg22 lam0n3 ) ( * Nl3arg23 lam0n4 ) ) 0 ) ( = ( + ( * Nl3arg31 lam0n2 ) ( * Nl3arg32 lam0n3 ) ( * Nl3arg33 lam0n4 ) ) 0 ) ( = ( * ( - 1 ) lam0n1 ) 0 ) ) ( and ( >= lam1n0 0 ) ( >= lam1n1 0 ) ( >= lam1n2 0 ) ( >= lam1n3 0 ) ( >= lam1n4 0 ) ( > ( + ( * 1 lam1n0 ) ( * Nl3CT1 lam1n2 ) ( * Nl3CT2 lam1n3 ) ( * Nl3CT3 lam1n4 ) ( - 1 ( + ( + ( + Nl3CT1 ( * Nl3arg11 0 ) ) ( * Nl3arg21 0 ) ) ( * Nl3arg31 0 ) ) ) ) 0 ) ( = ( + ( * ( - 1 ) lam1n0 ) ( * Nl3arg11 lam1n2 ) ( * Nl3arg12 lam1n3 ) ( * Nl3arg13 lam1n4 ) ) 0 ) ( = ( + ( * Nl3arg21 lam1n2 ) ( * Nl3arg22 lam1n3 ) ( * Nl3arg23 lam1n4 ) ) 0 ) ( = ( + ( * Nl3arg31 lam1n2 ) ( * Nl3arg32 lam1n3 ) ( * Nl3arg33 lam1n4 ) ) 0 ) ( = ( + ( * ( - 1 ) lam1n1 ) ( - ( + 0 ( * Nl3arg11 1 ) ) ) ) 0 ) ( = ( - ( + 0 ( * Nl3arg21 1 ) ) ) 0 ) ( = ( - ( + 0 ( * Nl3arg31 1 ) ) ) 0 ) ) ))
(assert ( or ( and ( >= lam0n0 0 ) ( >= lam0n1 0 ) ( >= lam0n2 0 ) ( >= lam0n3 0 ) ( >= lam0n4 0 ) ( > ( + ( * 1 lam0n0 ) ( * Nl3CT1 lam0n2 ) ( * Nl3CT2 lam0n3 ) ( * Nl3CT3 lam0n4 ) ( - 1 ) ) 0 ) ( = ( + ( * ( - 1 ) lam0n0 ) ( * Nl3arg11 lam0n2 ) ( * Nl3arg12 lam0n3 ) ( * Nl3arg13 lam0n4 ) ) 0 ) ( = ( + ( * Nl3arg21 lam0n2 ) ( * Nl3arg22 lam0n3 ) ( * Nl3arg23 lam0n4 ) ) 0 ) ( = ( + ( * Nl3arg31 lam0n2 ) ( * Nl3arg32 lam0n3 ) ( * Nl3arg33 lam0n4 ) ) 0 ) ( = ( * ( - 1 ) lam0n1 ) 0 ) ) ( and ( >= lam2n0 0 ) ( >= lam2n1 0 ) ( >= lam2n2 0 ) ( >= lam2n3 0 ) ( >= lam2n4 0 ) ( > ( + ( * 1 lam2n0 ) ( * Nl3CT1 lam2n2 ) ( * Nl3CT2 lam2n3 ) ( * Nl3CT3 lam2n4 ) ( - 1 ( + ( + ( + Nl3CT2 ( * Nl3arg12 0 ) ) ( * Nl3arg22 0 ) ) ( * Nl3arg32 0 ) ) ) ) 0 ) ( = ( + ( * ( - 1 ) lam2n0 ) ( * Nl3arg11 lam2n2 ) ( * Nl3arg12 lam2n3 ) ( * Nl3arg13 lam2n4 ) ) 0 ) ( = ( + ( * Nl3arg21 lam2n2 ) ( * Nl3arg22 lam2n3 ) ( * Nl3arg23 lam2n4 ) ) 0 ) ( = ( + ( * Nl3arg31 lam2n2 ) ( * Nl3arg32 lam2n3 ) ( * Nl3arg33 lam2n4 ) ) 0 ) ( = ( + ( * ( - 1 ) lam2n1 ) ( - ( + 0 ( * Nl3arg12 1 ) ) ) ) 0 ) ( = ( - ( + 0 ( * Nl3arg22 1 ) ) ) 0 ) ( = ( - ( + 0 ( * Nl3arg32 1 ) ) ) 0 ) ) ))
(assert ( or ( and ( >= lam0n0 0 ) ( >= lam0n1 0 ) ( >= lam0n2 0 ) ( >= lam0n3 0 ) ( >= lam0n4 0 ) ( > ( + ( * 1 lam0n0 ) ( * Nl3CT1 lam0n2 ) ( * Nl3CT2 lam0n3 ) ( * Nl3CT3 lam0n4 ) ( - 1 ) ) 0 ) ( = ( + ( * ( - 1 ) lam0n0 ) ( * Nl3arg11 lam0n2 ) ( * Nl3arg12 lam0n3 ) ( * Nl3arg13 lam0n4 ) ) 0 ) ( = ( + ( * Nl3arg21 lam0n2 ) ( * Nl3arg22 lam0n3 ) ( * Nl3arg23 lam0n4 ) ) 0 ) ( = ( + ( * Nl3arg31 lam0n2 ) ( * Nl3arg32 lam0n3 ) ( * Nl3arg33 lam0n4 ) ) 0 ) ( = ( * ( - 1 ) lam0n1 ) 0 ) ) ( and ( >= lam3n0 0 ) ( >= lam3n1 0 ) ( >= lam3n2 0 ) ( >= lam3n3 0 ) ( >= lam3n4 0 ) ( > ( + ( * 1 lam3n0 ) ( * Nl3CT1 lam3n2 ) ( * Nl3CT2 lam3n3 ) ( * Nl3CT3 lam3n4 ) ( - 1 ( + ( + ( + Nl3CT3 ( * Nl3arg13 0 ) ) ( * Nl3arg23 0 ) ) ( * Nl3arg33 0 ) ) ) ) 0 ) ( = ( + ( * ( - 1 ) lam3n0 ) ( * Nl3arg11 lam3n2 ) ( * Nl3arg12 lam3n3 ) ( * Nl3arg13 lam3n4 ) ) 0 ) ( = ( + ( * Nl3arg21 lam3n2 ) ( * Nl3arg22 lam3n3 ) ( * Nl3arg23 lam3n4 ) ) 0 ) ( = ( + ( * Nl3arg31 lam3n2 ) ( * Nl3arg32 lam3n3 ) ( * Nl3arg33 lam3n4 ) ) 0 ) ( = ( + ( * ( - 1 ) lam3n1 ) ( - ( + 0 ( * Nl3arg13 1 ) ) ) ) 0 ) ( = ( - ( + 0 ( * Nl3arg23 1 ) ) ) 0 ) ( = ( - ( + 0 ( * Nl3arg33 1 ) ) ) 0 ) ) ))
(assert ( or ( and ( <= ( + 1 ( * ( - 1 ) arg2 ) ) 0 ) ( <= ( + 1 ( * ( - 1 ) undef7 ) ) 0 ) ( <= arg3 0 ) ( <= ( + ( + ( + ( + Nl3CT1 ( * Nl3arg11 0 ) ) ( * Nl3arg21 0 ) ) ( * Nl3arg31 0 ) ) ( * ( + 0 ( * Nl3arg11 1 ) ) undef7 ) ( * ( + 0 ( * Nl3arg21 1 ) ) undef8 ) ( * ( + 0 ( * Nl3arg31 1 ) ) undef9 ) ) 0 ) ( <= ( + ( + ( + ( + Nl3CT2 ( * Nl3arg12 0 ) ) ( * Nl3arg22 0 ) ) ( * Nl3arg32 0 ) ) ( * ( + 0 ( * Nl3arg12 1 ) ) undef7 ) ( * ( + 0 ( * Nl3arg22 1 ) ) undef8 ) ( * ( + 0 ( * Nl3arg32 1 ) ) undef9 ) ) 0 ) ( <= ( + ( + ( + ( + Nl3CT3 ( * Nl3arg13 0 ) ) ( * Nl3arg23 0 ) ) ( * Nl3arg33 0 ) ) ( * ( + 0 ( * Nl3arg13 1 ) ) undef7 ) ( * ( + 0 ( * Nl3arg23 1 ) ) undef8 ) ( * ( + 0 ( * Nl3arg33 1 ) ) undef9 ) ) 0 ) ) ( and ( <= ( + ( - 1 ) ( * ( - 1 ) arg2 ) undef10 ) 0 ) ( <= arg3 0 ) ( <= ( + 2 ( * ( - 1 ) arg2 ) ) 0 ) ( <= ( + 3 ( * ( - 1 ) undef10 ) ) 0 ) ( <= ( + ( + ( + ( + Nl3CT1 ( * Nl3arg11 0 ) ) ( * Nl3arg21 0 ) ) ( * Nl3arg31 0 ) ) ( * ( + 0 ( * Nl3arg11 1 ) ) undef10 ) ( * ( + 0 ( * Nl3arg21 1 ) ) undef11 ) ( * ( + 0 ( * Nl3arg31 1 ) ) undef12 ) ) 0 ) ( <= ( + ( + ( + ( + Nl3CT2 ( * Nl3arg12 0 ) ) ( * Nl3arg22 0 ) ) ( * Nl3arg32 0 ) ) ( * ( + 0 ( * Nl3arg12 1 ) ) undef10 ) ( * ( + 0 ( * Nl3arg22 1 ) ) undef11 ) ( * ( + 0 ( * Nl3arg32 1 ) ) undef12 ) ) 0 ) ( <= ( + ( + ( + ( + Nl3CT3 ( * Nl3arg13 0 ) ) ( * Nl3arg23 0 ) ) ( * Nl3arg33 0 ) ) ( * ( + 0 ( * Nl3arg13 1 ) ) undef10 ) ( * ( + 0 ( * Nl3arg23 1 ) ) undef11 ) ( * ( + 0 ( * Nl3arg33 1 ) ) undef12 ) ) 0 ) ) ))
(assert ( or ( and ( and ( >= lam13n0 0 ) ( >= lam13n1 0 ) ( >= lam13n2 0 ) ( >= lam13n3 0 ) ( >= lam13n4 0 ) ( > ( + ( * 1 lam13n0 ) ( * Nl3CT1 lam13n2 ) ( * Nl3CT2 lam13n3 ) ( * Nl3CT3 lam13n4 ) ( - 1 ( - ( + ( + ( + RFN1_CT ( * RFN1_arg1 0 ) ) ( * RFN1_arg2 0 ) ) ( * RFN1_arg3 0 ) ) RFN1_CT ) ) ) 0 ) ( = ( + ( * ( - 1 ) lam13n0 ) ( * Nl3arg11 lam13n2 ) ( * Nl3arg12 lam13n3 ) ( * Nl3arg13 lam13n4 ) ( - ( - RFN1_arg1 ) ) ) 0 ) ( = ( + ( * Nl3arg21 lam13n2 ) ( * Nl3arg22 lam13n3 ) ( * Nl3arg23 lam13n4 ) ( - ( - RFN1_arg2 ) ) ) 0 ) ( = ( + ( * Nl3arg31 lam13n2 ) ( * Nl3arg32 lam13n3 ) ( * Nl3arg33 lam13n4 ) ( - ( - RFN1_arg3 ) ) ) 0 ) ( = ( + ( * ( - 1 ) lam13n1 ) ( - ( + 0 ( * RFN1_arg1 1 ) ) ) ) 0 ) ( = ( - ( + 0 ( * RFN1_arg2 1 ) ) ) 0 ) ( = ( - ( + 0 ( * RFN1_arg3 1 ) ) ) 0 ) ) ( and ( and ( >= lam11n0 0 ) ( >= lam11n1 0 ) ( >= lam11n2 0 ) ( >= lam11n3 0 ) ( >= lam11n4 0 ) ( > ( + ( * 1 lam11n0 ) ( * Nl3CT1 lam11n2 ) ( * Nl3CT2 lam11n3 ) ( * Nl3CT3 lam11n4 ) ( - 1 ( - RFN1_CT ) ) ) 0 ) ( = ( + ( * ( - 1 ) lam11n0 ) ( * Nl3arg11 lam11n2 ) ( * Nl3arg12 lam11n3 ) ( * Nl3arg13 lam11n4 ) ( - ( - RFN1_arg1 ) ) ) 0 ) ( = ( + ( * Nl3arg21 lam11n2 ) ( * Nl3arg22 lam11n3 ) ( * Nl3arg23 lam11n4 ) ( - ( - RFN1_arg2 ) ) ) 0 ) ( = ( + ( * Nl3arg31 lam11n2 ) ( * Nl3arg32 lam11n3 ) ( * Nl3arg33 lam11n4 ) ( - ( - RFN1_arg3 ) ) ) 0 ) ( = ( * ( - 1 ) lam11n1 ) 0 ) ) ( and ( >= lam12n0 0 ) ( >= lam12n1 0 ) ( >= lam12n2 0 ) ( >= lam12n3 0 ) ( >= lam12n4 0 ) ( > ( + ( * 1 lam12n0 ) ( * Nl3CT1 lam12n2 ) ( * Nl3CT2 lam12n3 ) ( * Nl3CT3 lam12n4 ) ( - 1 ( + ( - ( + ( + ( + RFN1_CT ( * RFN1_arg1 0 ) ) ( * RFN1_arg2 0 ) ) ( * RFN1_arg3 0 ) ) RFN1_CT ) 1 ) ) ) 0 ) ( = ( + ( * ( - 1 ) lam12n0 ) ( * Nl3arg11 lam12n2 ) ( * Nl3arg12 lam12n3 ) ( * Nl3arg13 lam12n4 ) ( - ( - RFN1_arg1 ) ) ) 0 ) ( = ( + ( * Nl3arg21 lam12n2 ) ( * Nl3arg22 lam12n3 ) ( * Nl3arg23 lam12n4 ) ( - ( - RFN1_arg2 ) ) ) 0 ) ( = ( + ( * Nl3arg31 lam12n2 ) ( * Nl3arg32 lam12n3 ) ( * Nl3arg33 lam12n4 ) ( - ( - RFN1_arg3 ) ) ) 0 ) ( = ( + ( * ( - 1 ) lam12n1 ) ( - ( + 0 ( * RFN1_arg1 1 ) ) ) ) 0 ) ( = ( - ( + 0 ( * RFN1_arg2 1 ) ) ) 0 ) ( = ( - ( + 0 ( * RFN1_arg3 1 ) ) ) 0 ) ) ) ) ( and ( >= lam10n0 0 ) ( >= lam10n1 0 ) ( >= lam10n2 0 ) ( >= lam10n3 0 ) ( >= lam10n4 0 ) ( > ( + ( * 1 lam10n0 ) ( * Nl3CT1 lam10n2 ) ( * Nl3CT2 lam10n3 ) ( * Nl3CT3 lam10n4 ) ( - 1 ) ) 0 ) ( = ( + ( * ( - 1 ) lam10n0 ) ( * Nl3arg11 lam10n2 ) ( * Nl3arg12 lam10n3 ) ( * Nl3arg13 lam10n4 ) ) 0 ) ( = ( + ( * Nl3arg21 lam10n2 ) ( * Nl3arg22 lam10n3 ) ( * Nl3arg23 lam10n4 ) ) 0 ) ( = ( + ( * Nl3arg31 lam10n2 ) ( * Nl3arg32 lam10n3 ) ( * Nl3arg33 lam10n4 ) ) 0 ) ( = ( * ( - 1 ) lam10n1 ) 0 ) ) ))
(check-sat)
(exit)
